1704.44
63 50 51 74 47 26 42 23 4 69 34 8 64 33 54 1 2 10 66 17 45 72 21 44 13 70 68 25 38 6 5 20 41 73 75 59 7 29 35 22 14 65 58 32 67 9 40 36 57 27 55 19 12 46 61 31 11 30 16 53 37 28 39 62 43 18 24 3 0 49 48 56 60 52 71 15 
